0 2035 2765 6428 6861 8773 6437 3744 8126 9923 7169
2035 0 12228 8345 6311 11017 6839 11527 5022 8132 5615
2765 12228 0 4957 7765 8336 1857 7642 2020 9053 1357
6428 8345 4957 0 11801 11368 8885 2537 11195 5737 10409
6861 6311 7765 11801 0 10156 10630 1803 4171 1313 1317
8773 11017 8336 11368 10156 0 4106 26 5694 2660 3020
6437 6839 1857 8885 10630 4106 0 7262 11811 6231 6346
3744 11527 7642 2537 1803 26 7262 0 11894 4150 1887
8126 5022 2020 11195 4171 5694 11811 11894 0 10868 4239
9923 8132 9053 5737 1313 2660 6231 4150 10868 0 6246
7169 5615 1357 10409 1317 3020 6346 1887 4239 6246 0
